903.57 0
0 3 79 33 81 78 34 35 71 65 66 20 9 51 69 0
0 52 7 19 36 49 64 11 63 90 32 30 70 10 62 88 0
0 31 1 50 76 77 68 80 29 24 55 25 67 23 0
0 53 26 21 72 75 56 39 4 54 12 28 0
0 27 89 60 83 5 84 17 45 8 46 47 48 82 18 0
0 13 87 2 57 42 43 15 41 22 74 73 40 58 0
0 6 94 96 99 93 85 98 59 0
0 95 97 92 37 100 91 61 16 86 38 44 14 0